c t pmc
p cnf 98 68
c p show 1 2 3 4 5 6 7 8 0
-3 -1 0
-1 -3 0
-7 -5 0
-5 -7 0
-4 -2 0
-2 -4 0
-8 -6 0
-6 -8 0
-5 -1 0
-1 -5 0
-7 -3 0
-3 -7 0
-6 -2 0
-2 -6 0
-8 -4 0
-4 -8 0
1 2 0
-1 -2 0
3 4 0
-3 -4 0
5 6 0
-5 -6 0
7 8 0
-7 -8 0
-88 -1 7 0
-88 -2 0
-89 -1 8 0
-89 -2 7 0
88 89 0
88 90 0
-90 91 92 0
-90 91 93 0
-93 94 95 0
-93 94 96 0
-96 97 98 0
-91 -3 5 0
-91 -4 0
-92 -3 6 0
-92 -4 5 0
88 89 0
88 90 0
-90 91 92 0
-90 91 93 0
-93 94 95 0
-93 94 96 0
-96 97 98 0
-94 -5 3 0
-94 -6 0
-95 -5 4 0
-95 -6 3 0
88 89 0
88 90 0
-90 91 92 0
-90 91 93 0
-93 94 95 0
-93 94 96 0
-96 97 98 0
-97 -7 1 0
-97 -8 0
-98 -7 2 0
-98 -8 1 0
88 89 0
88 90 0
-90 91 92 0
-90 91 93 0
-93 94 95 0
-93 94 96 0
-96 97 98 0
